p cnf 30 70
1 2 3 0
4 5 6 0
7 8 9 0
10 11 12 0
13 14 15 0
16 17 18 0
19 20 21 0
22 23 24 0
25 26 27 0
28 29 30 0
-1 -2 0
-1 -3 0
-2 -3 0
-4 -5 0
-4 -6 0
-5 -6 0
-7 -8 0
-7 -9 0
-8 -9 0
-10 -11 0
-10 -12 0
-11 -12 0
-13 -14 0
-13 -15 0
-14 -15 0
-16 -17 0
-16 -18 0
-17 -18 0
-19 -20 0
-19 -21 0
-20 -21 0
-22 -23 0
-22 -24 0
-23 -24 0
-25 -26 0
-25 -27 0
-26 -27 0
-28 -29 0
-28 -30 0
-29 -30 0
-1 -16 0
-4 -28 0
-7 -25 0
-10 -22 0
-13 -19 0
-16 -1 0
-19 -13 0
-22 -10 0
-25 -7 0
-28 -4 0
-2 -17 0
-5 -29 0
-8 -26 0
-11 -23 0
-14 -20 0
-17 -2 0
-20 -14 0
-23 -11 0
-26 -8 0
-29 -5 0
-3 -18 0
-6 -30 0
-9 -27 0
-12 -24 0
-15 -21 0
-18 -3 0
-21 -15 0
-24 -12 0
-27 -9 0
-30 -6 0
